JulietBench/Juliet_Based_Patch_Bench/linux/CWE-189-Numeric-Errors/CVE_2017_5546_c4e490cf148e85ead0d1b1c2caaba833f1d5b29f/Resultnext_random_slot_Snippet_patch2NEQ.smt2
; benchmark generated from python API
(set-info :status unknown)
(declare-fun R () (_ BitVec 32))
(declare-fun rsi () (_ BitVec 64))
(declare-fun rdi () (_ BitVec 64))
(assert
 (let (($x98 (and (distinct (_ bv0 32) R) true)))
 (let ((?x8 ((_ extract 31 0) rsi)))
 (let ((?x21 ((_ extract 31 31) rsi)))
 (let ((?x63 (concat (concat (concat (concat (concat ?x21 ?x21) ?x21) ?x21) ?x21) ?x21)))
 (let ((?x68 (concat (concat (concat (concat (concat ?x63 ?x21) ?x21) ?x21) ?x21) ?x21)))
 (let ((?x73 (concat (concat (concat (concat (concat ?x68 ?x21) ?x21) ?x21) ?x21) ?x21)))
 (let ((?x78 (concat (concat (concat (concat (concat ?x73 ?x21) ?x21) ?x21) ?x21) ?x21)))
 (let ((?x83 (concat (concat (concat (concat (concat ?x78 ?x21) ?x21) ?x21) ?x21) ?x21)))
 (let ((?x88 (concat (concat (concat (concat (concat ?x83 ?x21) ?x21) ?x21) ?x21) ?x21)))
 (let ((?x90 (concat (concat ?x88 ?x21) ?x8)))
 (let ((?x6 ((_ extract 31 0) rdi)))
 (let ((?x13 (bvashr ?x6 (_ bv31 32))))
 (let ((?x14 (concat ?x13 ?x6)))
 (let ((?x91 (bvsrem ?x14 ?x90)))
 (let ((?x92 ((_ extract 31 0) ?x91)))
 (let (($x93 (= R ?x92)))
 (let (($x19 (and (distinct (_ bv0 32) ?x8) true)))
 (let (($x96 (and $x19 $x93)))
 (let (($x97 (not $x96)))
 (let (($x99 (and $x97 $x98)))
 (let (($x94 (= (_ bv0 32) R)))
 (let (($x95 (and $x19 $x93 $x94)))
 (let (($x100 (or $x95 $x99)))
 (not $x100)))))))))))))))))))))))))
(check-sat)
